p cnf 12 50 
10 1 -8 0
-4 6 -10 0
5 12 -8 0
12 3 -4 0
-4 -2 9 0
-7 -2 -12 0
-12 2 -1 0
9 2 -8 0
4 11 -6 0
-10 11 -7 0
-5 4 -6 0
4 6 -9 0
-5 -9 3 0
-3 4 -6 0
7 1 8 0
7 -2 -11 0
-11 2 -5 0
-12 -2 -9 0
1 11 7 0
-12 -4 -10 0
-11 -9 -10 0
12 6 -9 0
4 11 -7 0
10 -4 8 0
-12 -8 -5 0
-4 -3 -1 0
-7 9 6 0
-8 -6 2 0
12 -1 -10 0
2 -6 -12 0
3 -5 -8 0
-4 -9 -6 0
7 -4 -5 0
-11 3 2 0
4 7 -9 0
-2 -1 6 0
-12 10 5 0
11 -5 10 0
-12 -5 -3 0
4 7 -11 0
4 9 7 0
-8 2 -5 0
-9 11 -4 0
2 -3 -12 0
-11 5 -3 0
11 12 -8 0
-6 8 -10 0
-1 -9 -6 0
-10 -8 -6 0
9 -11 12 0
